# Objective value = 1.3999999202819961e+02
y 6.99999960140998
x1 7
r1 1
y1 1
x2 6
r2 0
y2 0
x3 0
y3 5
x4 0
r4 1
y4 0
x5 6
r5 1
y5 4.99999960140998
x6 3
r6 1
y6 0
x7 7
r7 1
y7 0
x8 2
r8 1
y8 5
p12 1
q12 0
p13 1
q13 0
p14 1
q14 0
p15 0
q15 1
p16 1
q16 0
p17 1
q17 1
p18 1
q18 0
p23 0
q23 1
p24 1
q24 0
p25 0
q25 1
p26 1
q26 0
p27 0
q27 0
p28 0
q28 1
p34 1
q34 1
p35 0
q35 0
p36 0
q36 0
p37 0
q37 0
p38 0
q38 0
p45 0
q45 0
p46 0
q46 0
p47 0
q47 0
p48 0
q48 1
p56 1
q56 0
p57 1
q57 1
p58 1
q58 0
p67 0
q67 0
p68 0
q68 1
p78 1
q78 0
r3 0
